













































































29 107 56 
60 70 105 
110 0 114 
21 73 26 
57 100 59 
41 81 7 
48 50 61 
39 82 45 74 
65 113 28 
36 30 66 
52 44 35 80 
46 5 16 
58 69 108 
32 79 85 
78 4 15 
17 33 104 
31 47 92 
62 98 86 
109 23 102 
64 19 76 
34 75 54 
11 112 91 
90 97 111 
37 87 25 40 
95 9 89 
38 96 14 
8 3 101 
20 55 24 
27 63 12 
106 53 10 
94 84 42 
22 49 72 
77 88 2 
67 99 83 1 
43 103 51 
93 71 68 
18 13 6 
